1215732
0,4,34,97,100,33,51,28,45,58,83,50,1,80,93,106,15,24,82,2,62,19,43,42,84,60,31,94,5,29,102,55,73,91,3,66,78,22,63,21,14,47,20,79,16,52,99,101,53,57,103,104,86,61,18,72,41,59,105,54,32,77,107,95,92,12,67,39,7,27,35,11,64,87,6,17,49,75,98,70,46,96,90,88,10,48,30,38,13,69,68,26,85,74,56,71,37,40,25,36,8,76,65,9,108,23,89,44,81,0